unsat
(define-fun skel ((n200 Bool) (n215 Bool) (n209 Bool) (i22 Bool)) Bool (and (or (or (not n209) (not n200)) (not n215)) i22))
15.95user 0.03system 0:15.98elapsed 99%CPU (0avgtext+0avgdata 46416maxresident)k
0inputs+8outputs (0major+9353minor)pagefaults 0swaps
